Name: EasyAcademy5
Courses: 134
Rooms: 25
Days: 5
Periods_per_day: 7
Curricula: 22
Min_Max_Daily_Lectures: 2 5
UnavailabilityConstraints: 505
RoomConstraints: 1309

COURSES:
cU1 t419 3 2 30 0
c447 t421 3 3 100 0
c448 t422 2 2 15 0
c449 t423 4 3 100 0
cU2 t494 2 2 100 0
c451 t424 2 2 105 0
c452 t425 1 1 30 0
c453 no_teacher2 4 2 30 1
c454 t426 2 2 30 0
cU10 t476 3 3 130 0
cU8 t428 3 3 230 0
cU9 t1365 3 3 230 0
c458 t429 2 2 30 0
c459 t430 2 2 100 0
c460 t431 2 2 225 0
c461 t432 2 2 150 0
c462 t433 2 2 20 0
c463 t430 3 3 30 0
c464 t434 2 2 230 0
c465 t435 2 2 330 0
c466 t432 2 2 130 0
c467 t429 2 2 230 0
c468 t429 2 2 230 0
c469 t436 2 2 30 0
c470 t437 2 2 150 0
c471 t1368 3 3 100 0
c472 t438 2 2 30 0
c473 t438 2 2 10 0
c475 t423 2 2 130 0
c476 t503 2 2 230 0
c477 t440 3 3 200 0
cU6 t441 3 3 30 0
c480 t443 3 3 65 0
c481 t444 2 2 5 0
c482 t445 2 2 20 0
c483 t446 2 2 50 0
c484 t447 2 2 100 0
c485 t448 2 2 170 0
c486 t425 2 2 75 0
c487 t448 2 2 10 0
c488 t449 3 3 10 0
c489 t450 2 2 65 0
cU7 t451 3 3 170 0
c492 t452 3 3 135 0
c493 t453 3 3 30 0
cU5 t454 2 2 15 0
c497 t424 1 1 60 0
c500 t424 1 1 60 0
c502 t455 1 1 60 0
c503 t455 1 1 60 0
c506 t455 1 1 60 0
c507 t456 1 1 60 0
c508 t441 3 3 200 0
c509 t457 3 3 230 0
c510 t458 3 3 180 0
c511 t460 1 1 30 0
c512 t460 1 1 30 0
c513 t460 1 1 30 0
c514 t460 2 2 30 0
c515 t1371 1 1 50 0
c516 t460 2 2 50 0
c517 t460 2 2 50 0
c518 t460 1 1 50 0
c519 t460 1 1 50 0
c520 t461 2 2 50 0
c521 t462 2 2 100 0
c522 t462 1 1 20 0
c523 t463 1 1 50 0
c524 t463 1 1 40 0
c525 t464 2 2 50 0
c526 t466 1 1 50 0
c529 t466 1 1 50 0
c530 t467 2 2 25 0
c531 t467 2 2 50 0
c532 t468 1 1 25 0
c533 t468 1 1 25 0
c534 t468 2 2 25 0
c535 t468 2 2 25 0
c536 t469 3 3 30 0
c537 t469 2 2 30 0
c539 t470 2 2 50 0
c540 t470 2 2 50 0
c541 t470 2 2 20 0
c542 t471 2 2 5 0
c543 t471 1 1 5 0
c544 t472 2 2 20 0
c545 t473 2 2 90 0
c546 t474 3 3 150 0
c547 t475 2 2 150 0
c551 t477 3 3 40 0
c552 t478 3 3 10 0
c553 t422 3 3 30 0
c554 t479 2 2 45 0
c555 t480 2 2 20 0
c556 t481 2 2 10 0
c557 t457 2 2 10 0
c558 t446 2 2 10 0
cU4 t482 3 2 10 0
c562 t484 2 2 115 0
c563 t485 3 3 105 0
c564 t486 2 2 20 0
c565 t479 3 3 30 0
c566 t425 3 3 30 0
c567 t478 2 2 230 0
c568 t487 2 2 180 0
c569 t483 2 2 200 0
c570 t455 1 1 150 0
c571 t488 3 3 180 0
c572 t489 3 3 230 0
c573 t488 3 3 45 0
c574 t488 2 2 100 0
c575 t490 2 2 35 0
cU3 t481 2 2 20 0
c578 t491 2 2 20 0
c579 t490 2 2 230 0
c580 t491 2 2 230 0
c581 t492 2 2 130 0
c582 t493 3 3 100 0
c583 t1367 2 2 30 0
c584 t494 2 2 20 0
c595 t503 2 2 230 0
c2927 t521 3 3 190 0
c2933 t467 1 1 40 0
c2934 t461 2 2 50 0
c2935 t464 2 2 50 0
c2936 t463 1 1 40 0
c2937 t463 1 1 50 0
c2939 t462 2 2 50 0
c2940 t468 1 1 30 0
c2941 t468 1 1 90 0
c2942 t460 1 1 30 0
c2943 t462 2 2 40 0
c2944 t462 2 2 40 0
c2945 t462 2 2 40 0

ROOMS:
r161 48 3
r206 50 2
r207 25 2
r208 150 2
r209 80 2
r210 25 2
r211 50 2
r215 25 2
r216 20 2
r217 35 2
r218 28 2
r219 20 2
r503 230 2
r195 100 1
r196 25 1
r197 100 1
r198 25 1
r199 97 1
r202 16 1
r204 60 1
r205 25 1
r157 330 0
r158 24 0
r159 35 0
r160 41 0

CURRICULA:
cu129 5 cU5 c448 c452 c453 c454
cu130 10 c449 c451 c462 c544 c555 c562 c563 c564 c584 c522
cu134 5 cU7 c460 c480 c482 c486
cu135 5 cU7 c460 c470 c489 c562
cu136 4 cU3 c485 c486 c578
cu138 5 c551 c553 c565 c566 c583
cu141 3 c492 c573 c575
cu142 5 cU6 cU1 c463 c469 c493
cu144 5 c460 c465 c477 c508 c569
cu148 3 c480 c486 c554
cu195 7 cU4 c458 c483 c487 c552 c556 c557
cu197 4 cU2 c447 c471 c484
cu201 4 c460 c481 c489 c562
cu216 4 c465 c510 c568 c571
cu217 8 c459 c492 c542 c545 c574 c582 c521 c2939
cu218 8 cU8 c468 c502 c503 c579 c595 c2927 c2943
cu219 7 cU10 c466 c475 c506 c507 c581 c2944
cu220 16 cU9 c467 c476 c497 c500 c580 c511 c512 c513 c514 c530 c534 c535 c536 c537 c2945
cu222 15 c461 c485 c546 c547 c570 c518 c519 c520 c525 c531 c541 c2933 c2934 c2935 c2942
cu223 5 c451 c543 c563 c524 c2936
cu224 17 c464 c509 c567 c572 c515 c516 c517 c523 c526 c529 c532 c533 c539 c540 c2937 c2940 c2941
cu225 7 c472 c473 c488 c551 c558 c562 c573

UNAVAILABILITY_CONSTRAINTS:
cU1 0 0
cU1 0 1
c447 0 0
c447 0 1
c447 0 2
c447 0 4
c447 0 5
c447 0 6
c447 2 1
c447 2 2
c447 4 0
c447 4 1
c447 4 2
c447 4 4
c447 4 5
c447 4 6
c448 0 0
c448 2 0
c448 2 1
c448 2 2
c449 0 0
c449 0 1
c449 2 1
c449 2 2
cU2 0 0
cU2 1 0
cU2 2 0
cU2 2 1
cU2 2 2
cU2 3 0
cU2 4 0
c451 0 2
c451 1 2
c451 2 1
c451 2 2
c451 3 2
c451 4 2
c452 2 1
c452 2 2
c453 2 1
c453 2 2
c454 0 0
c454 0 1
c454 2 1
c454 2 2
cU10 0 0
cU10 2 1
cU10 2 2
cU10 3 4
cU10 4 1
cU10 4 4
cU8 0 1
cU8 0 2
cU8 2 1
cU8 2 2
c458 0 0
c458 2 1
c458 2 2
c458 4 0
c459 2 1
c459 2 2
c460 2 1
c460 2 2
c460 4 1
c461 1 1
c461 1 2
c461 2 1
c461 2 2
c461 3 1
c461 3 2
c462 0 0
c462 0 1
c462 0 2
c462 2 6
c462 3 0
c463 2 1
c463 2 2
c464 0 4
c464 1 4
c464 2 1
c464 2 2
c465 0 0
c465 2 1
c465 2 2
c465 4 6
c466 1 1
c466 1 2
c466 2 1
c466 2 2
c466 3 1
c466 3 2
c467 0 0
c467 2 1
c467 2 2
c467 4 0
c468 0 0
c468 2 1
c468 2 2
c468 4 0
c469 0 0
c469 2 0
c469 2 1
c469 2 2
c470 0 0
c470 0 1
c470 1 0
c470 1 1
c470 1 2
c470 1 4
c470 1 5
c470 1 6
c470 2 0
c470 2 1
c470 2 2
c470 2 4
c470 2 5
c470 2 6
c471 1 1
c471 1 2
c471 1 4
c471 1 5
c471 1 6
c471 2 4
c471 2 5
c471 2 6
c471 3 0
c471 3 1
c471 4 0
c471 4 1
c471 4 2
c472 1 4
c472 2 1
c472 2 2
c472 3 4
c473 1 4
c473 2 1
c473 2 2
c473 3 4
c475 0 0
c475 0 1
c475 2 1
c475 2 2
c476 2 1
c476 2 2
c477 1 5
c477 1 6
c477 2 1
c477 2 2
cU6 0 5
cU6 0 6
cU6 2 1
cU6 2 2
c480 0 6
c480 1 6
c480 2 1
c480 2 2
c480 2 6
c480 3 6
c480 4 6
c481 2 1
c481 2 2
c481 4 2
c481 4 4
c482 2 1
c482 2 2
c482 4 4
c482 4 5
c483 0 0
c483 0 1
c483 2 1
c483 2 2
c484 2 1
c484 2 2
c485 0 0
c485 0 1
c485 2 1
c485 2 2
c485 4 0
c485 4 1
c485 4 2
c485 4 4
c485 4 5
c485 4 6
c486 2 1
c486 2 2
c487 0 0
c487 0 1
c487 2 1
c487 2 2
c487 4 0
c487 4 1
c487 4 2
c487 4 4
c487 4 5
c487 4 6
c489 0 0
c489 4 6
cU7 2 1
cU7 2 2
c492 2 1
c492 2 2
c493 2 1
c493 2 2
cU5 0 0
cU5 0 1
cU5 0 2
cU5 0 6
cU5 1 6
cU5 2 1
cU5 2 2
cU5 2 6
cU5 3 6
cU5 4 6
c497 0 2
c497 1 2
c497 2 1
c497 2 2
c497 3 2
c497 4 2
c500 0 2
c500 1 2
c500 2 1
c500 2 2
c500 3 2
c500 4 2
c502 0 1
c502 0 2
c503 0 1
c503 0 2
c506 0 1
c506 0 2
c508 0 5
c508 0 6
c508 2 1
c508 2 2
c509 2 1
c509 2 2
c509 3 5
c509 3 6
c510 0 0
c510 1 0
c510 2 0
c510 2 1
c510 2 2
c510 3 0
c510 4 0
c515 0 0
c515 0 6
c515 1 0
c515 1 6
c515 2 0
c515 2 6
c515 3 0
c515 3 6
c515 4 0
c515 4 6
c521 0 2
c521 0 4
c522 0 2
c522 0 4
c530 0 6
c530 1 6
c531 0 6
c531 1 6
c532 0 0
c532 4 6
c533 0 0
c533 4 6
c534 0 0
c534 4 6
c535 0 0
c535 4 6
c536 0 4
c536 1 4
c536 2 4
c536 3 4
c536 4 4
c537 0 4
c537 1 4
c537 2 4
c537 3 4
c537 4 4
c539 2 0
c539 4 0
c539 4 1
c539 4 2
c539 4 4
c539 4 5
c539 4 6
c540 2 0
c540 4 0
c540 4 1
c540 4 2
c540 4 4
c540 4 5
c540 4 6
c541 2 0
c541 4 0
c541 4 1
c541 4 2
c541 4 4
c541 4 5
c541 4 6
c545 3 6
c545 4 6
c546 0 5
c546 0 6
c546 1 0
c546 1 1
c546 1 2
c546 1 6
c546 2 6
c546 3 6
c546 4 6
c547 0 2
c547 2 1
c547 2 2
c551 0 0
c551 0 6
c551 1 0
c551 1 6
c551 2 0
c551 2 1
c551 2 2
c551 2 6
c551 3 0
c551 3 6
c551 4 0
c551 4 6
c552 0 5
c552 0 6
c552 1 5
c552 1 6
c552 2 1
c552 2 2
c552 2 5
c552 2 6
c552 3 5
c552 3 6
c552 4 5
c552 4 6
c553 0 0
c553 2 0
c553 2 1
c553 2 2
c554 0 6
c554 1 6
c554 2 1
c554 2 2
c554 2 6
c554 3 6
c554 4 5
c554 4 6
c555 0 0
c555 0 1
c555 0 2
c555 1 0
c555 1 1
c555 1 2
c555 2 0
c555 2 1
c555 2 2
c555 3 0
c555 3 1
c555 3 2
c555 4 0
c555 4 1
c555 4 2
c556 0 0
c556 0 1
c556 2 1
c556 2 2
c557 2 1
c557 2 2
c557 3 5
c557 3 6
c558 0 0
c558 0 1
c558 2 1
c558 2 2
cU4 2 1
cU4 2 2
c562 0 0
c562 0 1
c562 1 1
c562 2 1
c562 2 2
c562 3 1
c562 4 1
c562 4 6
c563 0 0
c563 0 1
c563 1 4
c563 1 5
c563 1 6
c563 2 1
c563 2 2
c564 0 1
c564 1 1
c565 0 6
c565 1 6
c565 2 1
c565 2 2
c565 2 6
c565 3 6
c565 4 5
c565 4 6
c566 2 1
c566 2 2
c567 0 5
c567 0 6
c567 1 5
c567 1 6
c567 2 1
c567 2 2
c567 2 5
c567 2 6
c567 3 5
c567 3 6
c567 4 5
c567 4 6
c568 2 1
c568 2 2
c569 2 1
c569 2 2
c570 0 1
c570 0 2
c571 0 4
c571 0 5
c571 2 1
c571 2 2
c572 0 6
c572 1 6
c572 2 1
c572 2 2
c573 0 4
c573 0 5
c573 2 1
c573 2 2
c574 0 4
c574 0 5
c574 2 1
c574 2 2
c575 0 2
c575 0 4
c575 2 1
c575 2 2
cU3 0 0
cU3 0 1
cU3 2 1
cU3 2 2
c578 0 0
c578 0 1
c578 2 1
c578 2 2
c579 0 2
c579 0 4
c579 2 1
c579 2 2
c580 0 0
c580 0 1
c580 2 1
c580 2 2
c581 0 0
c581 1 0
c581 2 1
c581 2 2
c582 1 5
c582 1 6
c582 2 1
c582 2 2
c583 1 0
c583 1 1
c583 1 2
c583 1 4
c583 1 5
c583 1 6
c583 3 4
c583 3 5
c583 3 6
c584 0 0
c584 1 0
c584 2 0
c584 2 1
c584 2 2
c584 3 0
c584 4 0
c595 2 1
c595 2 2
c2927 2 1
c2927 2 2
c2933 0 6
c2933 1 6
c2939 0 2
c2939 0 4
c2940 0 0
c2940 4 6
c2941 0 0
c2941 4 6
c2943 0 2
c2943 0 4
c2944 0 2
c2944 0 4
c2945 0 2
c2945 0 4

ROOM_CONSTRAINTS:
c447 r161
c447 r215
c447 r216
c447 r217
c447 r218
c447 r219
c447 r204
c447 r205
c447 r158
c447 r159
c447 r160
c448 r161
c448 r215
c448 r216
c448 r217
c448 r218
c448 r219
c448 r204
c448 r205
c448 r158
c448 r159
c448 r160
c449 r161
c449 r215
c449 r216
c449 r217
c449 r218
c449 r219
c449 r204
c449 r205
c449 r158
c449 r159
c449 r160
cU2 r161
cU2 r215
cU2 r216
cU2 r217
cU2 r218
cU2 r219
cU2 r204
cU2 r205
cU2 r158
cU2 r159
cU2 r160
c451 r161
c451 r215
c451 r216
c451 r217
c451 r218
c451 r219
c451 r204
c451 r205
c451 r158
c451 r159
c451 r160
c452 r158
c452 r159
c452 r160
c453 r158
c453 r159
c453 r160
c454 r161
c454 r215
c454 r216
c454 r217
c454 r218
c454 r219
c454 r204
c454 r205
c454 r158
c454 r159
c454 r160
cU10 r161
cU10 r215
cU10 r216
cU10 r217
cU10 r218
cU10 r219
cU10 r204
cU10 r205
cU10 r158
cU10 r159
cU10 r160
cU8 r161
cU8 r215
cU8 r216
cU8 r217
cU8 r218
cU8 r219
cU8 r204
cU8 r205
cU8 r158
cU8 r159
cU8 r160
cU9 r161
cU9 r215
cU9 r216
cU9 r217
cU9 r218
cU9 r219
cU9 r204
cU9 r205
cU9 r158
cU9 r159
cU9 r160
c458 r161
c458 r215
c458 r216
c458 r217
c458 r218
c458 r219
c458 r204
c458 r205
c458 r158
c458 r159
c458 r160
c459 r161
c459 r215
c459 r216
c459 r217
c459 r218
c459 r219
c459 r204
c459 r205
c459 r158
c459 r159
c459 r160
c460 r161
c460 r215
c460 r216
c460 r217
c460 r218
c460 r219
c460 r204
c460 r205
c460 r158
c460 r159
c460 r160
c461 r161
c461 r215
c461 r216
c461 r217
c461 r218
c461 r219
c461 r204
c461 r205
c461 r158
c461 r159
c461 r160
c462 r161
c462 r215
c462 r216
c462 r217
c462 r218
c462 r219
c462 r204
c462 r205
c462 r158
c462 r159
c462 r160
c464 r161
c464 r215
c464 r216
c464 r217
c464 r218
c464 r219
c464 r204
c464 r205
c464 r158
c464 r159
c464 r160
c465 r161
c465 r215
c465 r216
c465 r217
c465 r218
c465 r219
c465 r204
c465 r205
c465 r158
c465 r159
c465 r160
c466 r161
c466 r215
c466 r216
c466 r217
c466 r218
c466 r219
c466 r204
c466 r205
c466 r158
c466 r159
c466 r160
c467 r161
c467 r215
c467 r216
c467 r217
c467 r218
c467 r219
c467 r204
c467 r205
c467 r158
c467 r159
c467 r160
c468 r161
c468 r215
c468 r216
c468 r217
c468 r218
c468 r219
c468 r204
c468 r205
c468 r158
c468 r159
c468 r160
c470 r161
c470 r215
c470 r216
c470 r217
c470 r218
c470 r219
c470 r204
c470 r205
c470 r158
c470 r159
c470 r160
c471 r161
c471 r215
c471 r216
c471 r217
c471 r218
c471 r219
c471 r204
c471 r205
c471 r158
c471 r159
c471 r160
c472 r158
c472 r159
c472 r160
c473 r158
c473 r159
c473 r160
c475 r161
c475 r215
c475 r216
c475 r217
c475 r218
c475 r219
c475 r204
c475 r205
c475 r158
c475 r159
c475 r160
c476 r161
c476 r215
c476 r216
c476 r217
c476 r218
c476 r219
c476 r204
c476 r205
c476 r158
c476 r159
c476 r160
c477 r161
c477 r215
c477 r216
c477 r217
c477 r218
c477 r219
c477 r204
c477 r205
c477 r158
c477 r159
c477 r160
c480 r161
c480 r215
c480 r216
c480 r217
c480 r218
c480 r219
c480 r204
c480 r205
c480 r158
c480 r159
c480 r160
c481 r161
c481 r215
c481 r216
c481 r217
c481 r218
c481 r219
c481 r204
c481 r205
c481 r158
c481 r159
c481 r160
c482 r161
c482 r215
c482 r216
c482 r217
c482 r218
c482 r219
c482 r204
c482 r205
c482 r158
c482 r159
c482 r160
c483 r161
c483 r215
c483 r216
c483 r217
c483 r218
c483 r219
c483 r204
c483 r205
c483 r158
c483 r159
c483 r160
c484 r161
c484 r215
c484 r216
c484 r217
c484 r218
c484 r219
c484 r204
c484 r205
c484 r158
c484 r159
c484 r160
c485 r161
c485 r215
c485 r216
c485 r217
c485 r218
c485 r219
c485 r204
c485 r205
c485 r158
c485 r159
c485 r160
c486 r161
c486 r215
c486 r216
c486 r217
c486 r218
c486 r219
c486 r204
c486 r205
c486 r158
c486 r159
c486 r160
c487 r161
c487 r215
c487 r216
c487 r217
c487 r218
c487 r219
c487 r204
c487 r205
c487 r158
c487 r159
c487 r160
c488 r161
c488 r215
c488 r216
c488 r217
c488 r218
c488 r219
c488 r204
c488 r205
c488 r158
c488 r159
c488 r160
c489 r161
c489 r215
c489 r216
c489 r217
c489 r218
c489 r219
c489 r204
c489 r205
c489 r158
c489 r159
c489 r160
cU7 r161
cU7 r215
cU7 r216
cU7 r217
cU7 r218
cU7 r219
cU7 r204
cU7 r205
cU7 r158
cU7 r159
cU7 r160
c492 r161
c492 r215
c492 r216
c492 r217
c492 r218
c492 r219
c492 r204
c492 r205
c492 r158
c492 r159
c492 r160
cU5 r161
cU5 r215
cU5 r216
cU5 r217
cU5 r218
cU5 r219
cU5 r204
cU5 r205
cU5 r158
cU5 r159
cU5 r160
c497 r158
c497 r159
c497 r160
c500 r158
c500 r159
c500 r160
c502 r158
c502 r159
c502 r160
c506 r158
c506 r159
c506 r160
c507 r158
c507 r159
c507 r160
c508 r161
c508 r215
c508 r216
c508 r217
c508 r218
c508 r219
c508 r204
c508 r205
c508 r158
c508 r159
c508 r160
c509 r161
c509 r215
c509 r216
c509 r217
c509 r218
c509 r219
c509 r204
c509 r205
c509 r158
c509 r159
c509 r160
c510 r161
c510 r215
c510 r216
c510 r217
c510 r218
c510 r219
c510 r204
c510 r205
c510 r158
c510 r159
c510 r160
c511 r161
c511 r215
c511 r216
c511 r217
c511 r218
c511 r219
c511 r204
c511 r205
c511 r158
c511 r159
c511 r160
c512 r161
c512 r215
c512 r216
c512 r217
c512 r218
c512 r219
c512 r204
c512 r205
c512 r158
c512 r159
c512 r160
c513 r161
c513 r215
c513 r216
c513 r217
c513 r218
c513 r219
c513 r204
c513 r205
c513 r158
c513 r159
c513 r160
c514 r161
c514 r215
c514 r216
c514 r217
c514 r218
c514 r219
c514 r204
c514 r205
c514 r158
c514 r159
c514 r160
c515 r161
c515 r215
c515 r216
c515 r217
c515 r218
c515 r219
c515 r204
c515 r205
c515 r158
c515 r159
c515 r160
c516 r161
c516 r215
c516 r216
c516 r217
c516 r218
c516 r219
c516 r204
c516 r205
c516 r158
c516 r159
c516 r160
c517 r161
c517 r215
c517 r216
c517 r217
c517 r218
c517 r219
c517 r204
c517 r205
c517 r158
c517 r159
c517 r160
c518 r161
c518 r215
c518 r216
c518 r217
c518 r218
c518 r219
c518 r204
c518 r205
c518 r158
c518 r159
c518 r160
c519 r161
c519 r215
c519 r216
c519 r217
c519 r218
c519 r219
c519 r204
c519 r205
c519 r158
c519 r159
c519 r160
c520 r161
c520 r215
c520 r216
c520 r217
c520 r218
c520 r219
c520 r204
c520 r205
c520 r158
c520 r159
c520 r160
c521 r161
c521 r215
c521 r216
c521 r217
c521 r218
c521 r219
c521 r204
c521 r205
c521 r158
c521 r159
c521 r160
c522 r161
c522 r215
c522 r216
c522 r217
c522 r218
c522 r219
c522 r204
c522 r205
c522 r158
c522 r159
c522 r160
c523 r161
c523 r215
c523 r216
c523 r217
c523 r218
c523 r219
c523 r204
c523 r205
c523 r158
c523 r159
c523 r160
c524 r161
c524 r215
c524 r216
c524 r217
c524 r218
c524 r219
c524 r204
c524 r205
c524 r158
c524 r159
c524 r160
c525 r161
c525 r215
c525 r216
c525 r217
c525 r218
c525 r219
c525 r204
c525 r205
c525 r158
c525 r159
c525 r160
c526 r161
c526 r215
c526 r216
c526 r217
c526 r218
c526 r219
c526 r204
c526 r205
c526 r158
c526 r159
c526 r160
c529 r161
c529 r215
c529 r216
c529 r217
c529 r218
c529 r219
c529 r204
c529 r205
c529 r158
c529 r159
c529 r160
c530 r161
c530 r215
c530 r216
c530 r217
c530 r218
c530 r219
c530 r204
c530 r205
c530 r158
c530 r159
c530 r160
c531 r161
c531 r215
c531 r216
c531 r217
c531 r218
c531 r219
c531 r204
c531 r205
c531 r158
c531 r159
c531 r160
c532 r161
c532 r215
c532 r216
c532 r217
c532 r218
c532 r219
c532 r204
c532 r205
c532 r158
c532 r159
c532 r160
c533 r161
c533 r215
c533 r216
c533 r217
c533 r218
c533 r219
c533 r204
c533 r205
c533 r158
c533 r159
c533 r160
c534 r161
c534 r215
c534 r216
c534 r217
c534 r218
c534 r219
c534 r204
c534 r205
c534 r158
c534 r159
c534 r160
c535 r161
c535 r215
c535 r216
c535 r217
c535 r218
c535 r219
c535 r204
c535 r205
c535 r158
c535 r159
c535 r160
c536 r161
c536 r215
c536 r216
c536 r217
c536 r218
c536 r219
c536 r204
c536 r205
c536 r158
c536 r159
c536 r160
c537 r161
c537 r215
c537 r216
c537 r217
c537 r218
c537 r219
c537 r204
c537 r205
c537 r158
c537 r159
c537 r160
c539 r161
c539 r215
c539 r216
c539 r217
c539 r218
c539 r219
c539 r204
c539 r205
c539 r158
c539 r159
c539 r160
c540 r161
c540 r215
c540 r216
c540 r217
c540 r218
c540 r219
c540 r204
c540 r205
c540 r158
c540 r159
c540 r160
c541 r161
c541 r215
c541 r216
c541 r217
c541 r218
c541 r219
c541 r204
c541 r205
c541 r158
c541 r159
c541 r160
c542 r161
c542 r215
c542 r216
c542 r217
c542 r218
c542 r219
c542 r204
c542 r205
c542 r158
c542 r159
c542 r160
c543 r161
c543 r215
c543 r216
c543 r217
c543 r218
c543 r219
c543 r204
c543 r205
c543 r158
c543 r159
c543 r160
c544 r161
c544 r215
c544 r216
c544 r217
c544 r218
c544 r219
c544 r204
c544 r205
c544 r158
c544 r159
c544 r160
c545 r161
c545 r215
c545 r216
c545 r217
c545 r218
c545 r219
c545 r204
c545 r205
c545 r158
c545 r159
c545 r160
c546 r161
c546 r215
c546 r216
c546 r217
c546 r218
c546 r219
c546 r204
c546 r205
c546 r158
c546 r159
c546 r160
c547 r161
c547 r215
c547 r216
c547 r217
c547 r218
c547 r219
c547 r204
c547 r205
c547 r158
c547 r159
c547 r160
c551 r161
c551 r215
c551 r216
c551 r217
c551 r218
c551 r219
c551 r204
c551 r205
c551 r158
c551 r159
c551 r160
c552 r161
c552 r215
c552 r216
c552 r217
c552 r218
c552 r219
c552 r204
c552 r205
c552 r158
c552 r159
c552 r160
c553 r158
c553 r159
c553 r160
c554 r161
c554 r215
c554 r216
c554 r217
c554 r218
c554 r219
c554 r204
c554 r205
c554 r158
c554 r159
c554 r160
c555 r161
c555 r215
c555 r216
c555 r217
c555 r218
c555 r219
c555 r204
c555 r205
c555 r158
c555 r159
c555 r160
c556 r161
c556 r215
c556 r216
c556 r217
c556 r218
c556 r219
c556 r204
c556 r205
c556 r158
c556 r159
c556 r160
c557 r161
c557 r215
c557 r216
c557 r217
c557 r218
c557 r219
c557 r204
c557 r205
c557 r158
c557 r159
c557 r160
c558 r161
c558 r215
c558 r216
c558 r217
c558 r218
c558 r219
c558 r204
c558 r205
c558 r158
c558 r159
c558 r160
cU4 r161
cU4 r215
cU4 r216
cU4 r217
cU4 r218
cU4 r219
cU4 r204
cU4 r205
cU4 r158
cU4 r159
cU4 r160
c562 r161
c562 r215
c562 r216
c562 r217
c562 r218
c562 r219
c562 r204
c562 r205
c562 r158
c562 r159
c562 r160
c563 r161
c563 r215
c563 r216
c563 r217
c563 r218
c563 r219
c563 r204
c563 r205
c563 r158
c563 r159
c563 r160
c564 r161
c564 r215
c564 r216
c564 r217
c564 r218
c564 r219
c564 r204
c564 r205
c564 r158
c564 r159
c564 r160
c565 r161
c565 r215
c565 r216
c565 r217
c565 r218
c565 r219
c565 r204
c565 r205
c565 r158
c565 r159
c565 r160
c566 r161
c566 r215
c566 r216
c566 r217
c566 r218
c566 r219
c566 r204
c566 r205
c566 r158
c566 r159
c566 r160
c567 r161
c567 r215
c567 r216
c567 r217
c567 r218
c567 r219
c567 r204
c567 r205
c567 r158
c567 r159
c567 r160
c568 r161
c568 r215
c568 r216
c568 r217
c568 r218
c568 r219
c568 r204
c568 r205
c568 r158
c568 r159
c568 r160
c569 r161
c569 r215
c569 r216
c569 r217
c569 r218
c569 r219
c569 r204
c569 r205
c569 r158
c569 r159
c569 r160
c570 r161
c570 r215
c570 r216
c570 r217
c570 r218
c570 r219
c570 r204
c570 r205
c570 r158
c570 r159
c570 r160
c571 r161
c571 r215
c571 r216
c571 r217
c571 r218
c571 r219
c571 r204
c571 r205
c571 r158
c571 r159
c571 r160
c572 r161
c572 r215
c572 r216
c572 r217
c572 r218
c572 r219
c572 r204
c572 r205
c572 r158
c572 r159
c572 r160
c573 r161
c573 r215
c573 r216
c573 r217
c573 r218
c573 r219
c573 r204
c573 r205
c573 r158
c573 r159
c573 r160
c574 r161
c574 r215
c574 r216
c574 r217
c574 r218
c574 r219
c574 r204
c574 r205
c574 r158
c574 r159
c574 r160
cU3 r161
cU3 r215
cU3 r216
cU3 r217
cU3 r218
cU3 r219
cU3 r204
cU3 r205
cU3 r158
cU3 r159
cU3 r160
c578 r161
c578 r215
c578 r216
c578 r217
c578 r218
c578 r219
c578 r204
c578 r205
c578 r158
c578 r159
c578 r160
c579 r161
c579 r215
c579 r216
c579 r217
c579 r218
c579 r219
c579 r204
c579 r205
c579 r158
c579 r159
c579 r160
c580 r161
c580 r215
c580 r216
c580 r217
c580 r218
c580 r219
c580 r204
c580 r205
c580 r158
c580 r159
c580 r160
c581 r161
c581 r215
c581 r216
c581 r217
c581 r218
c581 r219
c581 r204
c581 r205
c581 r158
c581 r159
c581 r160
c582 r161
c582 r215
c582 r216
c582 r217
c582 r218
c582 r219
c582 r204
c582 r205
c582 r158
c582 r159
c582 r160
c583 r161
c583 r215
c583 r216
c583 r217
c583 r218
c583 r219
c583 r204
c583 r205
c583 r158
c583 r159
c583 r160
c584 r161
c584 r215
c584 r216
c584 r217
c584 r218
c584 r219
c584 r204
c584 r205
c584 r158
c584 r159
c584 r160
c595 r161
c595 r215
c595 r216
c595 r217
c595 r218
c595 r219
c595 r204
c595 r205
c595 r158
c595 r159
c595 r160
c2927 r158
c2927 r159
c2927 r160
c2933 r161
c2933 r215
c2933 r216
c2933 r217
c2933 r218
c2933 r219
c2933 r204
c2933 r205
c2933 r158
c2933 r159
c2933 r160
c2934 r161
c2934 r215
c2934 r216
c2934 r217
c2934 r218
c2934 r219
c2934 r204
c2934 r205
c2934 r158
c2934 r159
c2934 r160
c2935 r161
c2935 r215
c2935 r216
c2935 r217
c2935 r218
c2935 r219
c2935 r204
c2935 r205
c2935 r158
c2935 r159
c2935 r160
c2936 r161
c2936 r215
c2936 r216
c2936 r217
c2936 r218
c2936 r219
c2936 r204
c2936 r205
c2936 r158
c2936 r159
c2936 r160
c2937 r161
c2937 r215
c2937 r216
c2937 r217
c2937 r218
c2937 r219
c2937 r204
c2937 r205
c2937 r158
c2937 r159
c2937 r160
c2939 r161
c2939 r215
c2939 r216
c2939 r217
c2939 r218
c2939 r219
c2939 r204
c2939 r205
c2939 r158
c2939 r159
c2939 r160
c2940 r161
c2940 r215
c2940 r216
c2940 r217
c2940 r218
c2940 r219
c2940 r204
c2940 r205
c2940 r158
c2940 r159
c2940 r160
c2941 r161
c2941 r215
c2941 r216
c2941 r217
c2941 r218
c2941 r219
c2941 r204
c2941 r205
c2941 r158
c2941 r159
c2941 r160
c2942 r161
c2942 r215
c2942 r216
c2942 r217
c2942 r218
c2942 r219
c2942 r204
c2942 r205
c2942 r158
c2942 r159
c2942 r160
c2943 r161
c2943 r215
c2943 r216
c2943 r217
c2943 r218
c2943 r219
c2943 r204
c2943 r205
c2943 r158
c2943 r159
c2943 r160
c2944 r161
c2944 r215
c2944 r216
c2944 r217
c2944 r218
c2944 r219
c2944 r204
c2944 r205
c2944 r158
c2944 r159
c2944 r160
c2945 r161
c2945 r215
c2945 r216
c2945 r217
c2945 r218
c2945 r219
c2945 r204
c2945 r205
c2945 r158
c2945 r159
c2945 r160

END.
